
Gurobi 10.0.1 (win64) logging started Tue Aug 29 02:53:14 2023

Set parameter LogFile to value "results//log/URT_11_deadline.log"
Gurobi Optimizer version 10.0.1 build v10.0.1rc0 (win64)

CPU model: AMD Ryzen 7 3700X 8-Core Processor, instruction set [SSE2|AVX|AVX2]
Thread count: 8 physical cores, 16 logical processors, using up to 16 threads

Optimize a model with 285 rows, 296 columns and 1040 nonzeros
Model fingerprint: 0x02b094f2
Model has 1 quadratic constraint
Variable types: 30 continuous, 266 integer (265 binary)
Coefficient statistics:
  Matrix range     [1e+00, 1e+06]
  QMatrix range    [1e+00, 1e+00]
  QLMatrix range   [1e+00, 1e+01]
  Objective range  [1e+00, 1e+00]
  Bounds range     [1e+00, 1e+00]
  RHS range        [1e+00, 3e+06]
Presolve removed 59 rows and 172 columns
Presolve time: 0.00s
Presolved: 237 rows, 134 columns, 996 nonzeros
Variable types: 40 continuous, 94 integer (93 binary)

Root relaxation: objective 0.000000e+00, 41 iterations, 0.00 seconds (0.00 work units)

    Nodes    |    Current Node    |     Objective Bounds      |     Work
 Expl Unexpl |  Obj  Depth IntInf | Incumbent    BestBd   Gap | It/Node Time

     0     0    0.00000    0    2          -    0.00000      -     -    0s
H    0     0                     139.0000000    0.00000   100%     -    0s
H    0     0                     138.0000000    0.00000   100%     -    0s
H    0     0                      87.0000000    0.00000   100%     -    0s
H    0     0                      81.0000000    0.00000   100%     -    0s
     0     0    0.00000    0    5   81.00000    0.00000   100%     -    0s
H    0     0                      72.0000000    0.00000   100%     -    0s
     0     0    0.00000    0    7   72.00000    0.00000   100%     -    0s
     0     0    0.00000    0    5   72.00000    0.00000   100%     -    0s
H    0     0                      70.0000000    0.00000   100%     -    0s
H    0     0                      61.0000000    0.00000   100%     -    0s
H    0     0                      58.0000000    0.00000   100%     -    0s
     0     0    0.00000    0    8   58.00000    0.00000   100%     -    0s
     0     0    0.00000    0    7   58.00000    0.00000   100%     -    0s
     0     0    0.00000    0    9   58.00000    0.00000   100%     -    0s
H    0     0                      44.0000000    0.00000   100%     -    0s
     0     0    0.00000    0   10   44.00000    0.00000   100%     -    0s
     0     0    0.00000    0    6   44.00000    0.00000   100%     -    0s
     0     0    0.00000    0    6   44.00000    0.00000   100%     -    0s
     0     2    0.00000    0    6   44.00000    0.00000   100%     -    0s

Cutting planes:
  Learned: 15

Explored 17833 nodes (72202 simplex iterations) in 4.48 seconds (0.67 work units)
Thread count was 16 (of 16 available processors)

Solution count 10: 44 44 58 ... 139

Optimal solution found (tolerance 1.00e-04)
Best objective 4.400000000000e+01, best bound 4.400000000000e+01, gap 0.0000%
Warning: constraint name "precedence between 0,2 to 0,0 if x_[j,l,h,z,i]=1" has a space
Warning: constraint name "precedence between 0,2 to 0,0 if x_[j,l,h,z,i]=1" has a space
Warning: default constraint names used to write mps file
